\ Model OA
\ LP format - for model browsing. Use MPS format to capture full model detail.
Minimize
  eta
Subject To
 initial_constr: eta >= 0
 R1: z_0_0 + z_0_1 + z_0_2 + z_0_3 + z_0_4 = 1
 R2: z_1_0 + z_1_1 + z_1_2 + z_1_3 + z_1_4 = 1
 R3: z_2_0 + z_2_1 + z_2_2 + z_2_3 + z_2_4 = 1
 R4: z_3_0 + z_3_1 + z_3_2 + z_3_3 + z_3_4 = 1
 R5: z_4_0 + z_4_1 + z_4_2 + z_4_3 + z_4_4 = 1
 R6: z_5_0 + z_5_1 + z_5_2 + z_5_3 + z_5_4 = 1
 R7: z_6_0 + z_6_1 + z_6_2 + z_6_3 + z_6_4 = 1
 R8: z_7_0 + z_7_1 + z_7_2 + z_7_3 + z_7_4 = 1
 R9: z_8_0 + z_8_1 + z_8_2 + z_8_3 + z_8_4 = 1
 R10: z_9_0 + z_9_1 + z_9_2 + z_9_3 + z_9_4 = 1
 R11: z_10_0 + z_10_1 + z_10_2 + z_10_3 + z_10_4 = 1
 R12: z_11_0 + z_11_1 + z_11_2 + z_11_3 + z_11_4 = 1
 R13: z_12_0 + z_12_1 + z_12_2 + z_12_3 + z_12_4 = 1
 R14: z_13_0 + z_13_1 + z_13_2 + z_13_3 + z_13_4 = 1
 R15: z_14_0 + z_14_1 + z_14_2 + z_14_3 + z_14_4 = 1
 R16: z_15_0 + z_15_1 + z_15_2 + z_15_3 + z_15_4 = 1
 R17: z_16_0 + z_16_1 + z_16_2 + z_16_3 + z_16_4 = 1
 R18: z_17_0 + z_17_1 + z_17_2 + z_17_3 + z_17_4 = 1
 R19: z_18_0 + z_18_1 + z_18_2 + z_18_3 + z_18_4 = 1
 R20: z_19_0 + z_19_1 + z_19_2 + z_19_3 + z_19_4 = 1
 R21: z_0_0 + z_1_0 + z_2_0 + z_3_0 + z_4_0 + z_5_0 + z_6_0 + z_7_0 + z_8_0
   + z_9_0 + z_10_0 + z_11_0 + z_12_0 + z_13_0 + z_14_0 + z_15_0 + z_16_0
   + z_17_0 + z_18_0 + z_19_0 >= 1
 R22: z_0_1 + z_1_1 + z_2_1 + z_3_1 + z_4_1 + z_5_1 + z_6_1 + z_7_1 + z_8_1
   + z_9_1 + z_10_1 + z_11_1 + z_12_1 + z_13_1 + z_14_1 + z_15_1 + z_16_1
   + z_17_1 + z_18_1 + z_19_1 >= 1
 R23: z_0_2 + z_1_2 + z_2_2 + z_3_2 + z_4_2 + z_5_2 + z_6_2 + z_7_2 + z_8_2
   + z_9_2 + z_10_2 + z_11_2 + z_12_2 + z_13_2 + z_14_2 + z_15_2 + z_16_2
   + z_17_2 + z_18_2 + z_19_2 >= 1
 R24: z_0_3 + z_1_3 + z_2_3 + z_3_3 + z_4_3 + z_5_3 + z_6_3 + z_7_3 + z_8_3
   + z_9_3 + z_10_3 + z_11_3 + z_12_3 + z_13_3 + z_14_3 + z_15_3 + z_16_3
   + z_17_3 + z_18_3 + z_19_3 >= 1
 R25: z_0_4 + z_1_4 + z_2_4 + z_3_4 + z_4_4 + z_5_4 + z_6_4 + z_7_4 + z_8_4
   + z_9_4 + z_10_4 + z_11_4 + z_12_4 + z_13_4 + z_14_4 + z_15_4 + z_16_4
   + z_17_4 + z_18_4 + z_19_4 >= 1
 R26: eta - 2 x_0_0 - 1609 z_0_0 >= -1610
 R27: eta - 2 x_1_0 - 1609 z_0_1 >= -1610
 R28: eta - 2 x_2_0 - 1609 z_0_2 >= -1610
 R29: eta - 2 x_3_0 - 1609 z_0_3 >= -1610
 R30: eta - 2 x_4_0 - 1609 z_0_4 >= -1610
 R31: eta + 2 x_0_0 - 1609 z_0_0 >= -1610
 R32: eta + 2 x_1_0 - 1609 z_0_1 >= -1610
 R33: eta + 2 x_2_0 - 1609 z_0_2 >= -1610
 R34: eta + 2 x_3_0 - 1609 z_0_3 >= -1610
 R35: eta + 2 x_4_0 - 1609 z_0_4 >= -1610
 R36: eta - 2 x_0_1 - 1609 z_0_0 >= -1610
 R37: eta - 2 x_1_1 - 1609 z_0_1 >= -1610
 R38: eta - 2 x_2_1 - 1609 z_0_2 >= -1610
 R39: eta - 2 x_3_1 - 1609 z_0_3 >= -1610
 R40: eta - 2 x_4_1 - 1609 z_0_4 >= -1610
 R41: eta + 2 x_0_1 - 1609 z_0_0 >= -1610
 R42: eta + 2 x_1_1 - 1609 z_0_1 >= -1610
 R43: eta + 2 x_2_1 - 1609 z_0_2 >= -1610
 R44: eta + 2 x_3_1 - 1609 z_0_3 >= -1610
 R45: eta + 2 x_4_1 - 1609 z_0_4 >= -1610
 R46: eta - 2 x_0_2 - 1609 z_0_0 >= -1610
 R47: eta - 2 x_1_2 - 1609 z_0_1 >= -1610
 R48: eta - 2 x_2_2 - 1609 z_0_2 >= -1610
 R49: eta - 2 x_3_2 - 1609 z_0_3 >= -1610
 R50: eta - 2 x_4_2 - 1609 z_0_4 >= -1610
 R51: eta + 2 x_0_2 - 1609 z_0_0 >= -1610
 R52: eta + 2 x_1_2 - 1609 z_0_1 >= -1610
 R53: eta + 2 x_2_2 - 1609 z_0_2 >= -1610
 R54: eta + 2 x_3_2 - 1609 z_0_3 >= -1610
 R55: eta + 2 x_4_2 - 1609 z_0_4 >= -1610
 R56: eta - 2 x_0_0 - 1609 z_1_0 >= -1610
 R57: eta - 2 x_1_0 - 1609 z_1_1 >= -1610
 R58: eta - 2 x_2_0 - 1609 z_1_2 >= -1610
 R59: eta - 2 x_3_0 - 1609 z_1_3 >= -1610
 R60: eta - 2 x_4_0 - 1609 z_1_4 >= -1610
 R61: eta + 2 x_0_0 - 1609 z_1_0 >= -1610
 R62: eta + 2 x_1_0 - 1609 z_1_1 >= -1610
 R63: eta + 2 x_2_0 - 1609 z_1_2 >= -1610
 R64: eta + 2 x_3_0 - 1609 z_1_3 >= -1610
 R65: eta + 2 x_4_0 - 1609 z_1_4 >= -1610
 R66: eta - 2 x_0_1 - 1609 z_1_0 >= -1610
 R67: eta - 2 x_1_1 - 1609 z_1_1 >= -1610
 R68: eta - 2 x_2_1 - 1609 z_1_2 >= -1610
 R69: eta - 2 x_3_1 - 1609 z_1_3 >= -1610
 R70: eta - 2 x_4_1 - 1609 z_1_4 >= -1610
 R71: eta + 2 x_0_1 - 1609 z_1_0 >= -1610
 R72: eta + 2 x_1_1 - 1609 z_1_1 >= -1610
 R73: eta + 2 x_2_1 - 1609 z_1_2 >= -1610
 R74: eta + 2 x_3_1 - 1609 z_1_3 >= -1610
 R75: eta + 2 x_4_1 - 1609 z_1_4 >= -1610
 R76: eta - 2 x_0_2 - 1609 z_1_0 >= -1612
 R77: eta - 2 x_1_2 - 1609 z_1_1 >= -1612
 R78: eta - 2 x_2_2 - 1609 z_1_2 >= -1612
 R79: eta - 2 x_3_2 - 1609 z_1_3 >= -1612
 R80: eta - 2 x_4_2 - 1609 z_1_4 >= -1612
 R81: eta + 2 x_0_2 - 1609 z_1_0 >= -1608
 R82: eta + 2 x_1_2 - 1609 z_1_1 >= -1608
 R83: eta + 2 x_2_2 - 1609 z_1_2 >= -1608
 R84: eta + 2 x_3_2 - 1609 z_1_3 >= -1608
 R85: eta + 2 x_4_2 - 1609 z_1_4 >= -1608
 R86: eta - 2 x_0_0 - 1609 z_2_0 >= -1610
 R87: eta - 2 x_1_0 - 1609 z_2_1 >= -1610
 R88: eta - 2 x_2_0 - 1609 z_2_2 >= -1610
 R89: eta - 2 x_3_0 - 1609 z_2_3 >= -1610
 R90: eta - 2 x_4_0 - 1609 z_2_4 >= -1610
 R91: eta + 2 x_0_0 - 1609 z_2_0 >= -1610
 R92: eta + 2 x_1_0 - 1609 z_2_1 >= -1610
 R93: eta + 2 x_2_0 - 1609 z_2_2 >= -1610
 R94: eta + 2 x_3_0 - 1609 z_2_3 >= -1610
 R95: eta + 2 x_4_0 - 1609 z_2_4 >= -1610
 R96: eta - 2 x_0_1 - 1609 z_2_0 >= -1610
 R97: eta - 2 x_1_1 - 1609 z_2_1 >= -1610
 R98: eta - 2 x_2_1 - 1609 z_2_2 >= -1610
 R99: eta - 2 x_3_1 - 1609 z_2_3 >= -1610
 R100: eta - 2 x_4_1 - 1609 z_2_4 >= -1610
 R101: eta + 2 x_0_1 - 1609 z_2_0 >= -1610
 R102: eta + 2 x_1_1 - 1609 z_2_1 >= -1610
 R103: eta + 2 x_2_1 - 1609 z_2_2 >= -1610
 R104: eta + 2 x_3_1 - 1609 z_2_3 >= -1610
 R105: eta + 2 x_4_1 - 1609 z_2_4 >= -1610
 R106: eta - 2 x_0_2 - 1609 z_2_0 >= -1614
 R107: eta - 2 x_1_2 - 1609 z_2_1 >= -1614
 R108: eta - 2 x_2_2 - 1609 z_2_2 >= -1614
 R109: eta - 2 x_3_2 - 1609 z_2_3 >= -1614
 R110: eta - 2 x_4_2 - 1609 z_2_4 >= -1614
 R111: eta + 2 x_0_2 - 1609 z_2_0 >= -1606
 R112: eta + 2 x_1_2 - 1609 z_2_1 >= -1606
 R113: eta + 2 x_2_2 - 1609 z_2_2 >= -1606
 R114: eta + 2 x_3_2 - 1609 z_2_3 >= -1606
 R115: eta + 2 x_4_2 - 1609 z_2_4 >= -1606
 R116: eta - 2 x_0_0 - 1609 z_3_0 >= -1610
 R117: eta - 2 x_1_0 - 1609 z_3_1 >= -1610
 R118: eta - 2 x_2_0 - 1609 z_3_2 >= -1610
 R119: eta - 2 x_3_0 - 1609 z_3_3 >= -1610
 R120: eta - 2 x_4_0 - 1609 z_3_4 >= -1610
 R121: eta + 2 x_0_0 - 1609 z_3_0 >= -1610
 R122: eta + 2 x_1_0 - 1609 z_3_1 >= -1610
 R123: eta + 2 x_2_0 - 1609 z_3_2 >= -1610
 R124: eta + 2 x_3_0 - 1609 z_3_3 >= -1610
 R125: eta + 2 x_4_0 - 1609 z_3_4 >= -1610
 R126: eta - 2 x_0_1 - 1609 z_3_0 >= -1610
 R127: eta - 2 x_1_1 - 1609 z_3_1 >= -1610
 R128: eta - 2 x_2_1 - 1609 z_3_2 >= -1610
 R129: eta - 2 x_3_1 - 1609 z_3_3 >= -1610
 R130: eta - 2 x_4_1 - 1609 z_3_4 >= -1610
 R131: eta + 2 x_0_1 - 1609 z_3_0 >= -1610
 R132: eta + 2 x_1_1 - 1609 z_3_1 >= -1610
 R133: eta + 2 x_2_1 - 1609 z_3_2 >= -1610
 R134: eta + 2 x_3_1 - 1609 z_3_3 >= -1610
 R135: eta + 2 x_4_1 - 1609 z_3_4 >= -1610
 R136: eta - 2 x_0_2 - 1609 z_3_0 >= -1616
 R137: eta - 2 x_1_2 - 1609 z_3_1 >= -1616
 R138: eta - 2 x_2_2 - 1609 z_3_2 >= -1616
 R139: eta - 2 x_3_2 - 1609 z_3_3 >= -1616
 R140: eta - 2 x_4_2 - 1609 z_3_4 >= -1616
 R141: eta + 2 x_0_2 - 1609 z_3_0 >= -1604
 R142: eta + 2 x_1_2 - 1609 z_3_1 >= -1604
 R143: eta + 2 x_2_2 - 1609 z_3_2 >= -1604
 R144: eta + 2 x_3_2 - 1609 z_3_3 >= -1604
 R145: eta + 2 x_4_2 - 1609 z_3_4 >= -1604
 R146: eta - 2 x_0_0 - 1609 z_4_0 >= -1610
 R147: eta - 2 x_1_0 - 1609 z_4_1 >= -1610
 R148: eta - 2 x_2_0 - 1609 z_4_2 >= -1610
 R149: eta - 2 x_3_0 - 1609 z_4_3 >= -1610
 R150: eta - 2 x_4_0 - 1609 z_4_4 >= -1610
 R151: eta + 2 x_0_0 - 1609 z_4_0 >= -1610
 R152: eta + 2 x_1_0 - 1609 z_4_1 >= -1610
 R153: eta + 2 x_2_0 - 1609 z_4_2 >= -1610
 R154: eta + 2 x_3_0 - 1609 z_4_3 >= -1610
 R155: eta + 2 x_4_0 - 1609 z_4_4 >= -1610
 R156: eta - 2 x_0_1 - 1609 z_4_0 >= -1630
 R157: eta - 2 x_1_1 - 1609 z_4_1 >= -1630
 R158: eta - 2 x_2_1 - 1609 z_4_2 >= -1630
 R159: eta - 2 x_3_1 - 1609 z_4_3 >= -1630
 R160: eta - 2 x_4_1 - 1609 z_4_4 >= -1630
 R161: eta + 2 x_0_1 - 1609 z_4_0 >= -1590
 R162: eta + 2 x_1_1 - 1609 z_4_1 >= -1590
 R163: eta + 2 x_2_1 - 1609 z_4_2 >= -1590
 R164: eta + 2 x_3_1 - 1609 z_4_3 >= -1590
 R165: eta + 2 x_4_1 - 1609 z_4_4 >= -1590
 R166: eta - 2 x_0_2 - 1609 z_4_0 >= -1610
 R167: eta - 2 x_1_2 - 1609 z_4_1 >= -1610
 R168: eta - 2 x_2_2 - 1609 z_4_2 >= -1610
 R169: eta - 2 x_3_2 - 1609 z_4_3 >= -1610
 R170: eta - 2 x_4_2 - 1609 z_4_4 >= -1610
 R171: eta + 2 x_0_2 - 1609 z_4_0 >= -1610
 R172: eta + 2 x_1_2 - 1609 z_4_1 >= -1610
 R173: eta + 2 x_2_2 - 1609 z_4_2 >= -1610
 R174: eta + 2 x_3_2 - 1609 z_4_3 >= -1610
 R175: eta + 2 x_4_2 - 1609 z_4_4 >= -1610
 R176: eta - 2 x_0_0 - 1609 z_5_0 >= -1610
 R177: eta - 2 x_1_0 - 1609 z_5_1 >= -1610
 R178: eta - 2 x_2_0 - 1609 z_5_2 >= -1610
 R179: eta - 2 x_3_0 - 1609 z_5_3 >= -1610
 R180: eta - 2 x_4_0 - 1609 z_5_4 >= -1610
 R181: eta + 2 x_0_0 - 1609 z_5_0 >= -1610
 R182: eta + 2 x_1_0 - 1609 z_5_1 >= -1610
 R183: eta + 2 x_2_0 - 1609 z_5_2 >= -1610
 R184: eta + 2 x_3_0 - 1609 z_5_3 >= -1610
 R185: eta + 2 x_4_0 - 1609 z_5_4 >= -1610
 R186: eta - 2 x_0_1 - 1609 z_5_0 >= -1630
 R187: eta - 2 x_1_1 - 1609 z_5_1 >= -1630
 R188: eta - 2 x_2_1 - 1609 z_5_2 >= -1630
 R189: eta - 2 x_3_1 - 1609 z_5_3 >= -1630
 R190: eta - 2 x_4_1 - 1609 z_5_4 >= -1630
 R191: eta + 2 x_0_1 - 1609 z_5_0 >= -1590
 R192: eta + 2 x_1_1 - 1609 z_5_1 >= -1590
 R193: eta + 2 x_2_1 - 1609 z_5_2 >= -1590
 R194: eta + 2 x_3_1 - 1609 z_5_3 >= -1590
 R195: eta + 2 x_4_1 - 1609 z_5_4 >= -1590
 R196: eta - 2 x_0_2 - 1609 z_5_0 >= -1612
 R197: eta - 2 x_1_2 - 1609 z_5_1 >= -1612
 R198: eta - 2 x_2_2 - 1609 z_5_2 >= -1612
 R199: eta - 2 x_3_2 - 1609 z_5_3 >= -1612
 R200: eta - 2 x_4_2 - 1609 z_5_4 >= -1612
 R201: eta + 2 x_0_2 - 1609 z_5_0 >= -1608
 R202: eta + 2 x_1_2 - 1609 z_5_1 >= -1608
 R203: eta + 2 x_2_2 - 1609 z_5_2 >= -1608
 R204: eta + 2 x_3_2 - 1609 z_5_3 >= -1608
 R205: eta + 2 x_4_2 - 1609 z_5_4 >= -1608
 R206: eta - 2 x_0_0 - 1609 z_6_0 >= -1610
 R207: eta - 2 x_1_0 - 1609 z_6_1 >= -1610
 R208: eta - 2 x_2_0 - 1609 z_6_2 >= -1610
 R209: eta - 2 x_3_0 - 1609 z_6_3 >= -1610
 R210: eta - 2 x_4_0 - 1609 z_6_4 >= -1610
 R211: eta + 2 x_0_0 - 1609 z_6_0 >= -1610
 R212: eta + 2 x_1_0 - 1609 z_6_1 >= -1610
 R213: eta + 2 x_2_0 - 1609 z_6_2 >= -1610
 R214: eta + 2 x_3_0 - 1609 z_6_3 >= -1610
 R215: eta + 2 x_4_0 - 1609 z_6_4 >= -1610
 R216: eta - 2 x_0_1 - 1609 z_6_0 >= -1630
 R217: eta - 2 x_1_1 - 1609 z_6_1 >= -1630
 R218: eta - 2 x_2_1 - 1609 z_6_2 >= -1630
 R219: eta - 2 x_3_1 - 1609 z_6_3 >= -1630
 R220: eta - 2 x_4_1 - 1609 z_6_4 >= -1630
 R221: eta + 2 x_0_1 - 1609 z_6_0 >= -1590
 R222: eta + 2 x_1_1 - 1609 z_6_1 >= -1590
 R223: eta + 2 x_2_1 - 1609 z_6_2 >= -1590
 R224: eta + 2 x_3_1 - 1609 z_6_3 >= -1590
 R225: eta + 2 x_4_1 - 1609 z_6_4 >= -1590
 R226: eta - 2 x_0_2 - 1609 z_6_0 >= -1614
 R227: eta - 2 x_1_2 - 1609 z_6_1 >= -1614
 R228: eta - 2 x_2_2 - 1609 z_6_2 >= -1614
 R229: eta - 2 x_3_2 - 1609 z_6_3 >= -1614
 R230: eta - 2 x_4_2 - 1609 z_6_4 >= -1614
 R231: eta + 2 x_0_2 - 1609 z_6_0 >= -1606
 R232: eta + 2 x_1_2 - 1609 z_6_1 >= -1606
 R233: eta + 2 x_2_2 - 1609 z_6_2 >= -1606
 R234: eta + 2 x_3_2 - 1609 z_6_3 >= -1606
 R235: eta + 2 x_4_2 - 1609 z_6_4 >= -1606
 R236: eta - 2 x_0_0 - 1609 z_7_0 >= -1610
 R237: eta - 2 x_1_0 - 1609 z_7_1 >= -1610
 R238: eta - 2 x_2_0 - 1609 z_7_2 >= -1610
 R239: eta - 2 x_3_0 - 1609 z_7_3 >= -1610
 R240: eta - 2 x_4_0 - 1609 z_7_4 >= -1610
 R241: eta + 2 x_0_0 - 1609 z_7_0 >= -1610
 R242: eta + 2 x_1_0 - 1609 z_7_1 >= -1610
 R243: eta + 2 x_2_0 - 1609 z_7_2 >= -1610
 R244: eta + 2 x_3_0 - 1609 z_7_3 >= -1610
 R245: eta + 2 x_4_0 - 1609 z_7_4 >= -1610
 R246: eta - 2 x_0_1 - 1609 z_7_0 >= -1630
 R247: eta - 2 x_1_1 - 1609 z_7_1 >= -1630
 R248: eta - 2 x_2_1 - 1609 z_7_2 >= -1630
 R249: eta - 2 x_3_1 - 1609 z_7_3 >= -1630
 R250: eta - 2 x_4_1 - 1609 z_7_4 >= -1630
 R251: eta + 2 x_0_1 - 1609 z_7_0 >= -1590
 R252: eta + 2 x_1_1 - 1609 z_7_1 >= -1590
 R253: eta + 2 x_2_1 - 1609 z_7_2 >= -1590
 R254: eta + 2 x_3_1 - 1609 z_7_3 >= -1590
 R255: eta + 2 x_4_1 - 1609 z_7_4 >= -1590
 R256: eta - 2 x_0_2 - 1609 z_7_0 >= -1616
 R257: eta - 2 x_1_2 - 1609 z_7_1 >= -1616
 R258: eta - 2 x_2_2 - 1609 z_7_2 >= -1616
 R259: eta - 2 x_3_2 - 1609 z_7_3 >= -1616
 R260: eta - 2 x_4_2 - 1609 z_7_4 >= -1616
 R261: eta + 2 x_0_2 - 1609 z_7_0 >= -1604
 R262: eta + 2 x_1_2 - 1609 z_7_1 >= -1604
 R263: eta + 2 x_2_2 - 1609 z_7_2 >= -1604
 R264: eta + 2 x_3_2 - 1609 z_7_3 >= -1604
 R265: eta + 2 x_4_2 - 1609 z_7_4 >= -1604
 R266: eta - 2 x_0_0 - 1609 z_8_0 >= -1610
 R267: eta - 2 x_1_0 - 1609 z_8_1 >= -1610
 R268: eta - 2 x_2_0 - 1609 z_8_2 >= -1610
 R269: eta - 2 x_3_0 - 1609 z_8_3 >= -1610
 R270: eta - 2 x_4_0 - 1609 z_8_4 >= -1610
 R271: eta + 2 x_0_0 - 1609 z_8_0 >= -1610
 R272: eta + 2 x_1_0 - 1609 z_8_1 >= -1610
 R273: eta + 2 x_2_0 - 1609 z_8_2 >= -1610
 R274: eta + 2 x_3_0 - 1609 z_8_3 >= -1610
 R275: eta + 2 x_4_0 - 1609 z_8_4 >= -1610
 R276: eta - 2 x_0_1 - 1609 z_8_0 >= -1650
 R277: eta - 2 x_1_1 - 1609 z_8_1 >= -1650
 R278: eta - 2 x_2_1 - 1609 z_8_2 >= -1650
 R279: eta - 2 x_3_1 - 1609 z_8_3 >= -1650
 R280: eta - 2 x_4_1 - 1609 z_8_4 >= -1650
 R281: eta + 2 x_0_1 - 1609 z_8_0 >= -1570
 R282: eta + 2 x_1_1 - 1609 z_8_1 >= -1570
 R283: eta + 2 x_2_1 - 1609 z_8_2 >= -1570
 R284: eta + 2 x_3_1 - 1609 z_8_3 >= -1570
 R285: eta + 2 x_4_1 - 1609 z_8_4 >= -1570
 R286: eta - 2 x_0_2 - 1609 z_8_0 >= -1610
 R287: eta - 2 x_1_2 - 1609 z_8_1 >= -1610
 R288: eta - 2 x_2_2 - 1609 z_8_2 >= -1610
 R289: eta - 2 x_3_2 - 1609 z_8_3 >= -1610
 R290: eta - 2 x_4_2 - 1609 z_8_4 >= -1610
 R291: eta + 2 x_0_2 - 1609 z_8_0 >= -1610
 R292: eta + 2 x_1_2 - 1609 z_8_1 >= -1610
 R293: eta + 2 x_2_2 - 1609 z_8_2 >= -1610
 R294: eta + 2 x_3_2 - 1609 z_8_3 >= -1610
 R295: eta + 2 x_4_2 - 1609 z_8_4 >= -1610
 R296: eta - 2 x_0_0 - 1609 z_9_0 >= -1610
 R297: eta - 2 x_1_0 - 1609 z_9_1 >= -1610
 R298: eta - 2 x_2_0 - 1609 z_9_2 >= -1610
 R299: eta - 2 x_3_0 - 1609 z_9_3 >= -1610
 R300: eta - 2 x_4_0 - 1609 z_9_4 >= -1610
 R301: eta + 2 x_0_0 - 1609 z_9_0 >= -1610
 R302: eta + 2 x_1_0 - 1609 z_9_1 >= -1610
 R303: eta + 2 x_2_0 - 1609 z_9_2 >= -1610
 R304: eta + 2 x_3_0 - 1609 z_9_3 >= -1610
 R305: eta + 2 x_4_0 - 1609 z_9_4 >= -1610
 R306: eta - 2 x_0_1 - 1609 z_9_0 >= -1650
 R307: eta - 2 x_1_1 - 1609 z_9_1 >= -1650
 R308: eta - 2 x_2_1 - 1609 z_9_2 >= -1650
 R309: eta - 2 x_3_1 - 1609 z_9_3 >= -1650
 R310: eta - 2 x_4_1 - 1609 z_9_4 >= -1650
 R311: eta + 2 x_0_1 - 1609 z_9_0 >= -1570
 R312: eta + 2 x_1_1 - 1609 z_9_1 >= -1570
 R313: eta + 2 x_2_1 - 1609 z_9_2 >= -1570
 R314: eta + 2 x_3_1 - 1609 z_9_3 >= -1570
 R315: eta + 2 x_4_1 - 1609 z_9_4 >= -1570
 R316: eta - 2 x_0_2 - 1609 z_9_0 >= -1612
 R317: eta - 2 x_1_2 - 1609 z_9_1 >= -1612
 R318: eta - 2 x_2_2 - 1609 z_9_2 >= -1612
 R319: eta - 2 x_3_2 - 1609 z_9_3 >= -1612
 R320: eta - 2 x_4_2 - 1609 z_9_4 >= -1612
 R321: eta + 2 x_0_2 - 1609 z_9_0 >= -1608
 R322: eta + 2 x_1_2 - 1609 z_9_1 >= -1608
 R323: eta + 2 x_2_2 - 1609 z_9_2 >= -1608
 R324: eta + 2 x_3_2 - 1609 z_9_3 >= -1608
 R325: eta + 2 x_4_2 - 1609 z_9_4 >= -1608
 R326: eta - 2 x_0_0 - 1609 z_10_0 >= -1610
 R327: eta - 2 x_1_0 - 1609 z_10_1 >= -1610
 R328: eta - 2 x_2_0 - 1609 z_10_2 >= -1610
 R329: eta - 2 x_3_0 - 1609 z_10_3 >= -1610
 R330: eta - 2 x_4_0 - 1609 z_10_4 >= -1610
 R331: eta + 2 x_0_0 - 1609 z_10_0 >= -1610
 R332: eta + 2 x_1_0 - 1609 z_10_1 >= -1610
 R333: eta + 2 x_2_0 - 1609 z_10_2 >= -1610
 R334: eta + 2 x_3_0 - 1609 z_10_3 >= -1610
 R335: eta + 2 x_4_0 - 1609 z_10_4 >= -1610
 R336: eta - 2 x_0_1 - 1609 z_10_0 >= -1650
 R337: eta - 2 x_1_1 - 1609 z_10_1 >= -1650
 R338: eta - 2 x_2_1 - 1609 z_10_2 >= -1650
 R339: eta - 2 x_3_1 - 1609 z_10_3 >= -1650
 R340: eta - 2 x_4_1 - 1609 z_10_4 >= -1650
 R341: eta + 2 x_0_1 - 1609 z_10_0 >= -1570
 R342: eta + 2 x_1_1 - 1609 z_10_1 >= -1570
 R343: eta + 2 x_2_1 - 1609 z_10_2 >= -1570
 R344: eta + 2 x_3_1 - 1609 z_10_3 >= -1570
 R345: eta + 2 x_4_1 - 1609 z_10_4 >= -1570
 R346: eta - 2 x_0_2 - 1609 z_10_0 >= -1614
 R347: eta - 2 x_1_2 - 1609 z_10_1 >= -1614
 R348: eta - 2 x_2_2 - 1609 z_10_2 >= -1614
 R349: eta - 2 x_3_2 - 1609 z_10_3 >= -1614
 R350: eta - 2 x_4_2 - 1609 z_10_4 >= -1614
 R351: eta + 2 x_0_2 - 1609 z_10_0 >= -1606
 R352: eta + 2 x_1_2 - 1609 z_10_1 >= -1606
 R353: eta + 2 x_2_2 - 1609 z_10_2 >= -1606
 R354: eta + 2 x_3_2 - 1609 z_10_3 >= -1606
 R355: eta + 2 x_4_2 - 1609 z_10_4 >= -1606
 R356: eta - 2 x_0_0 - 1609 z_11_0 >= -1610
 R357: eta - 2 x_1_0 - 1609 z_11_1 >= -1610
 R358: eta - 2 x_2_0 - 1609 z_11_2 >= -1610
 R359: eta - 2 x_3_0 - 1609 z_11_3 >= -1610
 R360: eta - 2 x_4_0 - 1609 z_11_4 >= -1610
 R361: eta + 2 x_0_0 - 1609 z_11_0 >= -1610
 R362: eta + 2 x_1_0 - 1609 z_11_1 >= -1610
 R363: eta + 2 x_2_0 - 1609 z_11_2 >= -1610
 R364: eta + 2 x_3_0 - 1609 z_11_3 >= -1610
 R365: eta + 2 x_4_0 - 1609 z_11_4 >= -1610
 R366: eta - 2 x_0_1 - 1609 z_11_0 >= -1650
 R367: eta - 2 x_1_1 - 1609 z_11_1 >= -1650
 R368: eta - 2 x_2_1 - 1609 z_11_2 >= -1650
 R369: eta - 2 x_3_1 - 1609 z_11_3 >= -1650
 R370: eta - 2 x_4_1 - 1609 z_11_4 >= -1650
 R371: eta + 2 x_0_1 - 1609 z_11_0 >= -1570
 R372: eta + 2 x_1_1 - 1609 z_11_1 >= -1570
 R373: eta + 2 x_2_1 - 1609 z_11_2 >= -1570
 R374: eta + 2 x_3_1 - 1609 z_11_3 >= -1570
 R375: eta + 2 x_4_1 - 1609 z_11_4 >= -1570
 R376: eta - 2 x_0_2 - 1609 z_11_0 >= -1616
 R377: eta - 2 x_1_2 - 1609 z_11_1 >= -1616
 R378: eta - 2 x_2_2 - 1609 z_11_2 >= -1616
 R379: eta - 2 x_3_2 - 1609 z_11_3 >= -1616
 R380: eta - 2 x_4_2 - 1609 z_11_4 >= -1616
 R381: eta + 2 x_0_2 - 1609 z_11_0 >= -1604
 R382: eta + 2 x_1_2 - 1609 z_11_1 >= -1604
 R383: eta + 2 x_2_2 - 1609 z_11_2 >= -1604
 R384: eta + 2 x_3_2 - 1609 z_11_3 >= -1604
 R385: eta + 2 x_4_2 - 1609 z_11_4 >= -1604
 R386: eta - 2 x_0_0 - 1609 z_12_0 >= -1610
 R387: eta - 2 x_1_0 - 1609 z_12_1 >= -1610
 R388: eta - 2 x_2_0 - 1609 z_12_2 >= -1610
 R389: eta - 2 x_3_0 - 1609 z_12_3 >= -1610
 R390: eta - 2 x_4_0 - 1609 z_12_4 >= -1610
 R391: eta + 2 x_0_0 - 1609 z_12_0 >= -1610
 R392: eta + 2 x_1_0 - 1609 z_12_1 >= -1610
 R393: eta + 2 x_2_0 - 1609 z_12_2 >= -1610
 R394: eta + 2 x_3_0 - 1609 z_12_3 >= -1610
 R395: eta + 2 x_4_0 - 1609 z_12_4 >= -1610
 R396: eta - 2 x_0_1 - 1609 z_12_0 >= -1670
 R397: eta - 2 x_1_1 - 1609 z_12_1 >= -1670
 R398: eta - 2 x_2_1 - 1609 z_12_2 >= -1670
 R399: eta - 2 x_3_1 - 1609 z_12_3 >= -1670
 R400: eta - 2 x_4_1 - 1609 z_12_4 >= -1670
 R401: eta + 2 x_0_1 - 1609 z_12_0 >= -1550
 R402: eta + 2 x_1_1 - 1609 z_12_1 >= -1550
 R403: eta + 2 x_2_1 - 1609 z_12_2 >= -1550
 R404: eta + 2 x_3_1 - 1609 z_12_3 >= -1550
 R405: eta + 2 x_4_1 - 1609 z_12_4 >= -1550
 R406: eta - 2 x_0_2 - 1609 z_12_0 >= -1610
 R407: eta - 2 x_1_2 - 1609 z_12_1 >= -1610
 R408: eta - 2 x_2_2 - 1609 z_12_2 >= -1610
 R409: eta - 2 x_3_2 - 1609 z_12_3 >= -1610
 R410: eta - 2 x_4_2 - 1609 z_12_4 >= -1610
 R411: eta + 2 x_0_2 - 1609 z_12_0 >= -1610
 R412: eta + 2 x_1_2 - 1609 z_12_1 >= -1610
 R413: eta + 2 x_2_2 - 1609 z_12_2 >= -1610
 R414: eta + 2 x_3_2 - 1609 z_12_3 >= -1610
 R415: eta + 2 x_4_2 - 1609 z_12_4 >= -1610
 R416: eta - 2 x_0_0 - 1609 z_13_0 >= -1610
 R417: eta - 2 x_1_0 - 1609 z_13_1 >= -1610
 R418: eta - 2 x_2_0 - 1609 z_13_2 >= -1610
 R419: eta - 2 x_3_0 - 1609 z_13_3 >= -1610
 R420: eta - 2 x_4_0 - 1609 z_13_4 >= -1610
 R421: eta + 2 x_0_0 - 1609 z_13_0 >= -1610
 R422: eta + 2 x_1_0 - 1609 z_13_1 >= -1610
 R423: eta + 2 x_2_0 - 1609 z_13_2 >= -1610
 R424: eta + 2 x_3_0 - 1609 z_13_3 >= -1610
 R425: eta + 2 x_4_0 - 1609 z_13_4 >= -1610
 R426: eta - 2 x_0_1 - 1609 z_13_0 >= -1670
 R427: eta - 2 x_1_1 - 1609 z_13_1 >= -1670
 R428: eta - 2 x_2_1 - 1609 z_13_2 >= -1670
 R429: eta - 2 x_3_1 - 1609 z_13_3 >= -1670
 R430: eta - 2 x_4_1 - 1609 z_13_4 >= -1670
 R431: eta + 2 x_0_1 - 1609 z_13_0 >= -1550
 R432: eta + 2 x_1_1 - 1609 z_13_1 >= -1550
 R433: eta + 2 x_2_1 - 1609 z_13_2 >= -1550
 R434: eta + 2 x_3_1 - 1609 z_13_3 >= -1550
 R435: eta + 2 x_4_1 - 1609 z_13_4 >= -1550
 R436: eta - 2 x_0_2 - 1609 z_13_0 >= -1612
 R437: eta - 2 x_1_2 - 1609 z_13_1 >= -1612
 R438: eta - 2 x_2_2 - 1609 z_13_2 >= -1612
 R439: eta - 2 x_3_2 - 1609 z_13_3 >= -1612
 R440: eta - 2 x_4_2 - 1609 z_13_4 >= -1612
 R441: eta + 2 x_0_2 - 1609 z_13_0 >= -1608
 R442: eta + 2 x_1_2 - 1609 z_13_1 >= -1608
 R443: eta + 2 x_2_2 - 1609 z_13_2 >= -1608
 R444: eta + 2 x_3_2 - 1609 z_13_3 >= -1608
 R445: eta + 2 x_4_2 - 1609 z_13_4 >= -1608
 R446: eta - 2 x_0_0 - 1609 z_14_0 >= -1610
 R447: eta - 2 x_1_0 - 1609 z_14_1 >= -1610
 R448: eta - 2 x_2_0 - 1609 z_14_2 >= -1610
 R449: eta - 2 x_3_0 - 1609 z_14_3 >= -1610
 R450: eta - 2 x_4_0 - 1609 z_14_4 >= -1610
 R451: eta + 2 x_0_0 - 1609 z_14_0 >= -1610
 R452: eta + 2 x_1_0 - 1609 z_14_1 >= -1610
 R453: eta + 2 x_2_0 - 1609 z_14_2 >= -1610
 R454: eta + 2 x_3_0 - 1609 z_14_3 >= -1610
 R455: eta + 2 x_4_0 - 1609 z_14_4 >= -1610
 R456: eta - 2 x_0_1 - 1609 z_14_0 >= -1670
 R457: eta - 2 x_1_1 - 1609 z_14_1 >= -1670
 R458: eta - 2 x_2_1 - 1609 z_14_2 >= -1670
 R459: eta - 2 x_3_1 - 1609 z_14_3 >= -1670
 R460: eta - 2 x_4_1 - 1609 z_14_4 >= -1670
 R461: eta + 2 x_0_1 - 1609 z_14_0 >= -1550
 R462: eta + 2 x_1_1 - 1609 z_14_1 >= -1550
 R463: eta + 2 x_2_1 - 1609 z_14_2 >= -1550
 R464: eta + 2 x_3_1 - 1609 z_14_3 >= -1550
 R465: eta + 2 x_4_1 - 1609 z_14_4 >= -1550
 R466: eta - 2 x_0_2 - 1609 z_14_0 >= -1614
 R467: eta - 2 x_1_2 - 1609 z_14_1 >= -1614
 R468: eta - 2 x_2_2 - 1609 z_14_2 >= -1614
 R469: eta - 2 x_3_2 - 1609 z_14_3 >= -1614
 R470: eta - 2 x_4_2 - 1609 z_14_4 >= -1614
 R471: eta + 2 x_0_2 - 1609 z_14_0 >= -1606
 R472: eta + 2 x_1_2 - 1609 z_14_1 >= -1606
 R473: eta + 2 x_2_2 - 1609 z_14_2 >= -1606
 R474: eta + 2 x_3_2 - 1609 z_14_3 >= -1606
 R475: eta + 2 x_4_2 - 1609 z_14_4 >= -1606
 R476: eta - 2 x_0_0 - 1609 z_15_0 >= -1610
 R477: eta - 2 x_1_0 - 1609 z_15_1 >= -1610
 R478: eta - 2 x_2_0 - 1609 z_15_2 >= -1610
 R479: eta - 2 x_3_0 - 1609 z_15_3 >= -1610
 R480: eta - 2 x_4_0 - 1609 z_15_4 >= -1610
 R481: eta + 2 x_0_0 - 1609 z_15_0 >= -1610
 R482: eta + 2 x_1_0 - 1609 z_15_1 >= -1610
 R483: eta + 2 x_2_0 - 1609 z_15_2 >= -1610
 R484: eta + 2 x_3_0 - 1609 z_15_3 >= -1610
 R485: eta + 2 x_4_0 - 1609 z_15_4 >= -1610
 R486: eta - 2 x_0_1 - 1609 z_15_0 >= -1670
 R487: eta - 2 x_1_1 - 1609 z_15_1 >= -1670
 R488: eta - 2 x_2_1 - 1609 z_15_2 >= -1670
 R489: eta - 2 x_3_1 - 1609 z_15_3 >= -1670
 R490: eta - 2 x_4_1 - 1609 z_15_4 >= -1670
 R491: eta + 2 x_0_1 - 1609 z_15_0 >= -1550
 R492: eta + 2 x_1_1 - 1609 z_15_1 >= -1550
 R493: eta + 2 x_2_1 - 1609 z_15_2 >= -1550
 R494: eta + 2 x_3_1 - 1609 z_15_3 >= -1550
 R495: eta + 2 x_4_1 - 1609 z_15_4 >= -1550
 R496: eta - 2 x_0_2 - 1609 z_15_0 >= -1616
 R497: eta - 2 x_1_2 - 1609 z_15_1 >= -1616
 R498: eta - 2 x_2_2 - 1609 z_15_2 >= -1616
 R499: eta - 2 x_3_2 - 1609 z_15_3 >= -1616
 R500: eta - 2 x_4_2 - 1609 z_15_4 >= -1616
 R501: eta + 2 x_0_2 - 1609 z_15_0 >= -1604
 R502: eta + 2 x_1_2 - 1609 z_15_1 >= -1604
 R503: eta + 2 x_2_2 - 1609 z_15_2 >= -1604
 R504: eta + 2 x_3_2 - 1609 z_15_3 >= -1604
 R505: eta + 2 x_4_2 - 1609 z_15_4 >= -1604
 R506: eta - 2 x_0_0 - 1609 z_16_0 >= -1610
 R507: eta - 2 x_1_0 - 1609 z_16_1 >= -1610
 R508: eta - 2 x_2_0 - 1609 z_16_2 >= -1610
 R509: eta - 2 x_3_0 - 1609 z_16_3 >= -1610
 R510: eta - 2 x_4_0 - 1609 z_16_4 >= -1610
 R511: eta + 2 x_0_0 - 1609 z_16_0 >= -1610
 R512: eta + 2 x_1_0 - 1609 z_16_1 >= -1610
 R513: eta + 2 x_2_0 - 1609 z_16_2 >= -1610
 R514: eta + 2 x_3_0 - 1609 z_16_3 >= -1610
 R515: eta + 2 x_4_0 - 1609 z_16_4 >= -1610
 R516: eta - 2 x_0_1 - 1609 z_16_0 >= -1690
 R517: eta - 2 x_1_1 - 1609 z_16_1 >= -1690
 R518: eta - 2 x_2_1 - 1609 z_16_2 >= -1690
 R519: eta - 2 x_3_1 - 1609 z_16_3 >= -1690
 R520: eta - 2 x_4_1 - 1609 z_16_4 >= -1690
 R521: eta + 2 x_0_1 - 1609 z_16_0 >= -1530
 R522: eta + 2 x_1_1 - 1609 z_16_1 >= -1530
 R523: eta + 2 x_2_1 - 1609 z_16_2 >= -1530
 R524: eta + 2 x_3_1 - 1609 z_16_3 >= -1530
 R525: eta + 2 x_4_1 - 1609 z_16_4 >= -1530
 R526: eta - 2 x_0_2 - 1609 z_16_0 >= -1610
 R527: eta - 2 x_1_2 - 1609 z_16_1 >= -1610
 R528: eta - 2 x_2_2 - 1609 z_16_2 >= -1610
 R529: eta - 2 x_3_2 - 1609 z_16_3 >= -1610
 R530: eta - 2 x_4_2 - 1609 z_16_4 >= -1610
 R531: eta + 2 x_0_2 - 1609 z_16_0 >= -1610
 R532: eta + 2 x_1_2 - 1609 z_16_1 >= -1610
 R533: eta + 2 x_2_2 - 1609 z_16_2 >= -1610
 R534: eta + 2 x_3_2 - 1609 z_16_3 >= -1610
 R535: eta + 2 x_4_2 - 1609 z_16_4 >= -1610
 R536: eta - 2 x_0_0 - 1609 z_17_0 >= -1610
 R537: eta - 2 x_1_0 - 1609 z_17_1 >= -1610
 R538: eta - 2 x_2_0 - 1609 z_17_2 >= -1610
 R539: eta - 2 x_3_0 - 1609 z_17_3 >= -1610
 R540: eta - 2 x_4_0 - 1609 z_17_4 >= -1610
 R541: eta + 2 x_0_0 - 1609 z_17_0 >= -1610
 R542: eta + 2 x_1_0 - 1609 z_17_1 >= -1610
 R543: eta + 2 x_2_0 - 1609 z_17_2 >= -1610
 R544: eta + 2 x_3_0 - 1609 z_17_3 >= -1610
 R545: eta + 2 x_4_0 - 1609 z_17_4 >= -1610
 R546: eta - 2 x_0_1 - 1609 z_17_0 >= -1690
 R547: eta - 2 x_1_1 - 1609 z_17_1 >= -1690
 R548: eta - 2 x_2_1 - 1609 z_17_2 >= -1690
 R549: eta - 2 x_3_1 - 1609 z_17_3 >= -1690
 R550: eta - 2 x_4_1 - 1609 z_17_4 >= -1690
 R551: eta + 2 x_0_1 - 1609 z_17_0 >= -1530
 R552: eta + 2 x_1_1 - 1609 z_17_1 >= -1530
 R553: eta + 2 x_2_1 - 1609 z_17_2 >= -1530
 R554: eta + 2 x_3_1 - 1609 z_17_3 >= -1530
 R555: eta + 2 x_4_1 - 1609 z_17_4 >= -1530
 R556: eta - 2 x_0_2 - 1609 z_17_0 >= -1612
 R557: eta - 2 x_1_2 - 1609 z_17_1 >= -1612
 R558: eta - 2 x_2_2 - 1609 z_17_2 >= -1612
 R559: eta - 2 x_3_2 - 1609 z_17_3 >= -1612
 R560: eta - 2 x_4_2 - 1609 z_17_4 >= -1612
 R561: eta + 2 x_0_2 - 1609 z_17_0 >= -1608
 R562: eta + 2 x_1_2 - 1609 z_17_1 >= -1608
 R563: eta + 2 x_2_2 - 1609 z_17_2 >= -1608
 R564: eta + 2 x_3_2 - 1609 z_17_3 >= -1608
 R565: eta + 2 x_4_2 - 1609 z_17_4 >= -1608
 R566: eta - 2 x_0_0 - 1609 z_18_0 >= -1610
 R567: eta - 2 x_1_0 - 1609 z_18_1 >= -1610
 R568: eta - 2 x_2_0 - 1609 z_18_2 >= -1610
 R569: eta - 2 x_3_0 - 1609 z_18_3 >= -1610
 R570: eta - 2 x_4_0 - 1609 z_18_4 >= -1610
 R571: eta + 2 x_0_0 - 1609 z_18_0 >= -1610
 R572: eta + 2 x_1_0 - 1609 z_18_1 >= -1610
 R573: eta + 2 x_2_0 - 1609 z_18_2 >= -1610
 R574: eta + 2 x_3_0 - 1609 z_18_3 >= -1610
 R575: eta + 2 x_4_0 - 1609 z_18_4 >= -1610
 R576: eta - 2 x_0_1 - 1609 z_18_0 >= -1690
 R577: eta - 2 x_1_1 - 1609 z_18_1 >= -1690
 R578: eta - 2 x_2_1 - 1609 z_18_2 >= -1690
 R579: eta - 2 x_3_1 - 1609 z_18_3 >= -1690
 R580: eta - 2 x_4_1 - 1609 z_18_4 >= -1690
 R581: eta + 2 x_0_1 - 1609 z_18_0 >= -1530
 R582: eta + 2 x_1_1 - 1609 z_18_1 >= -1530
 R583: eta + 2 x_2_1 - 1609 z_18_2 >= -1530
 R584: eta + 2 x_3_1 - 1609 z_18_3 >= -1530
 R585: eta + 2 x_4_1 - 1609 z_18_4 >= -1530
 R586: eta - 2 x_0_2 - 1609 z_18_0 >= -1614
 R587: eta - 2 x_1_2 - 1609 z_18_1 >= -1614
 R588: eta - 2 x_2_2 - 1609 z_18_2 >= -1614
 R589: eta - 2 x_3_2 - 1609 z_18_3 >= -1614
 R590: eta - 2 x_4_2 - 1609 z_18_4 >= -1614
 R591: eta + 2 x_0_2 - 1609 z_18_0 >= -1606
 R592: eta + 2 x_1_2 - 1609 z_18_1 >= -1606
 R593: eta + 2 x_2_2 - 1609 z_18_2 >= -1606
 R594: eta + 2 x_3_2 - 1609 z_18_3 >= -1606
 R595: eta + 2 x_4_2 - 1609 z_18_4 >= -1606
 R596: eta - 2 x_0_0 - 1609 z_19_0 >= -1610
 R597: eta - 2 x_1_0 - 1609 z_19_1 >= -1610
 R598: eta - 2 x_2_0 - 1609 z_19_2 >= -1610
 R599: eta - 2 x_3_0 - 1609 z_19_3 >= -1610
 R600: eta - 2 x_4_0 - 1609 z_19_4 >= -1610
 R601: eta + 2 x_0_0 - 1609 z_19_0 >= -1610
 R602: eta + 2 x_1_0 - 1609 z_19_1 >= -1610
 R603: eta + 2 x_2_0 - 1609 z_19_2 >= -1610
 R604: eta + 2 x_3_0 - 1609 z_19_3 >= -1610
 R605: eta + 2 x_4_0 - 1609 z_19_4 >= -1610
 R606: eta - 2 x_0_1 - 1609 z_19_0 >= -1690
 R607: eta - 2 x_1_1 - 1609 z_19_1 >= -1690
 R608: eta - 2 x_2_1 - 1609 z_19_2 >= -1690
 R609: eta - 2 x_3_1 - 1609 z_19_3 >= -1690
 R610: eta - 2 x_4_1 - 1609 z_19_4 >= -1690
 R611: eta + 2 x_0_1 - 1609 z_19_0 >= -1530
 R612: eta + 2 x_1_1 - 1609 z_19_1 >= -1530
 R613: eta + 2 x_2_1 - 1609 z_19_2 >= -1530
 R614: eta + 2 x_3_1 - 1609 z_19_3 >= -1530
 R615: eta + 2 x_4_1 - 1609 z_19_4 >= -1530
 R616: eta - 2 x_0_2 - 1609 z_19_0 >= -1616
 R617: eta - 2 x_1_2 - 1609 z_19_1 >= -1616
 R618: eta - 2 x_2_2 - 1609 z_19_2 >= -1616
 R619: eta - 2 x_3_2 - 1609 z_19_3 >= -1616
 R620: eta - 2 x_4_2 - 1609 z_19_4 >= -1616
 R621: eta + 2 x_0_2 - 1609 z_19_0 >= -1604
 R622: eta + 2 x_1_2 - 1609 z_19_1 >= -1604
 R623: eta + 2 x_2_2 - 1609 z_19_2 >= -1604
 R624: eta + 2 x_3_2 - 1609 z_19_3 >= -1604
 R625: eta + 2 x_4_2 - 1609 z_19_4 >= -1604
Bounds
 x_0_0 = 0
 x_0_1 = 0
 x_0_2 = 0
 x_1_0 = 0
 x_1_1 = 0
 x_1_2 = 0
 x_2_0 = 0
 x_2_1 = 0
 x_2_2 = 0
 x_3_0 = 0
 x_3_1 = 0
 x_3_2 = 0
 x_4_0 = 0
 x_4_1 = 0
 x_4_2 = 0
Binaries
 z_0_0 z_1_0 z_2_0 z_3_0 z_4_0 z_5_0 z_6_0 z_7_0 z_8_0 z_9_0 z_10_0 z_11_0
 z_12_0 z_13_0 z_14_0 z_15_0 z_16_0 z_17_0 z_18_0 z_19_0 z_0_1 z_1_1 z_2_1
 z_3_1 z_4_1 z_5_1 z_6_1 z_7_1 z_8_1 z_9_1 z_10_1 z_11_1 z_12_1 z_13_1
 z_14_1 z_15_1 z_16_1 z_17_1 z_18_1 z_19_1 z_0_2 z_1_2 z_2_2 z_3_2 z_4_2
 z_5_2 z_6_2 z_7_2 z_8_2 z_9_2 z_10_2 z_11_2 z_12_2 z_13_2 z_14_2 z_15_2
 z_16_2 z_17_2 z_18_2 z_19_2 z_0_3 z_1_3 z_2_3 z_3_3 z_4_3 z_5_3 z_6_3
 z_7_3 z_8_3 z_9_3 z_10_3 z_11_3 z_12_3 z_13_3 z_14_3 z_15_3 z_16_3 z_17_3
 z_18_3 z_19_3 z_0_4 z_1_4 z_2_4 z_3_4 z_4_4 z_5_4 z_6_4 z_7_4 z_8_4 z_9_4
 z_10_4 z_11_4 z_12_4 z_13_4 z_14_4 z_15_4 z_16_4 z_17_4 z_18_4 z_19_4
End
